;; sequence(s): A94687
;; terms: 0 0 1 2 6 13 30 64 137 286 594 1221 2498 5084 10313 20858 42094 84797 170582 342760
;; small program: loop2((x + y) + y, x, x, 1, 0) - loop2(x + y, x, x, 1, 0)
;; fast program: (((loop(x + x, x mod 2, loop(x * x, 1, loop(x + x, x div 2, 1))) div (1 + 2)) * 2) + 1) - loop2(x + y, x, x - 1, 1, 1)
(set-logic UFNIA)
(define-fun divf ((a Int) (b Int)) Int (ite (< 0 b) (div a b) (div (- a) (- b))))
(define-fun modf ((a Int) (b Int)) Int (ite (< 0 b) (mod a b) (- (mod (- a) (- b)))))
(declare-fun f0 (Int Int) Int)
(declare-fun g0 (Int) Int)
(declare-fun h0 (Int) Int)
(declare-fun i0 () Int)
(declare-fun j0 () Int)
(declare-fun u0 (Int Int Int) Int)
(declare-fun v0 (Int Int Int) Int)
(declare-fun w0 (Int) Int)
(declare-fun f1 (Int Int) Int)
(declare-fun g1 (Int) Int)
(declare-fun h1 (Int) Int)
(declare-fun i1 () Int)
(declare-fun j1 () Int)
(declare-fun u1 (Int Int Int) Int)
(declare-fun v1 (Int Int Int) Int)
(declare-fun w1 (Int) Int)
(declare-fun small (Int) Int)
(declare-fun f2 (Int) Int)
(declare-fun g2 (Int) Int)
(declare-fun f3 (Int) Int)
(declare-fun g3 () Int)
(declare-fun f4 (Int) Int)
(declare-fun g4 (Int) Int)
(declare-fun h4 () Int)
(declare-fun u4 (Int Int) Int)
(declare-fun v4 (Int) Int)
(declare-fun h3 (Int) Int)
(declare-fun u3 (Int Int) Int)
(declare-fun v3 (Int) Int)
(declare-fun h2 (Int) Int)
(declare-fun u2 (Int Int) Int)
(declare-fun v2 (Int) Int)
(declare-fun f5 (Int Int) Int)
(declare-fun g5 (Int) Int)
(declare-fun h5 (Int) Int)
(declare-fun i5 () Int)
(declare-fun j5 () Int)
(declare-fun u5 (Int Int Int) Int)
(declare-fun v5 (Int Int Int) Int)
(declare-fun w5 (Int) Int)
(declare-fun fast (Int) Int)
(assert (forall ((x Int) (y Int)) (= (f0 x y) (+ (+ x y) y))))
(assert (forall ((x Int)) (= (g0 x) x)))
(assert (forall ((x Int)) (= (h0 x) x)))
(assert (= i0 1))
(assert (= j0 0))
(assert (forall ((x Int) (y Int) (z Int)) (= (u0 x y z) (ite (<= x 0) y (f0 (u0 (- x 1) y z) (v0 (- x 1) y z))))))
(assert (forall ((x Int) (y Int) (z Int)) (= (v0 x y z) (ite (<= x 0) z (g0 (u0 (- x 1) y z))))))
(assert (forall ((x Int)) (= (w0 x) (u0 (h0 x) i0 j0))))
(assert (forall ((x Int) (y Int)) (= (f1 x y) (+ x y))))
(assert (forall ((x Int)) (= (g1 x) x)))
(assert (forall ((x Int)) (= (h1 x) x)))
(assert (= i1 1))
(assert (= j1 0))
(assert (forall ((x Int) (y Int) (z Int)) (= (u1 x y z) (ite (<= x 0) y (f1 (u1 (- x 1) y z) (v1 (- x 1) y z))))))
(assert (forall ((x Int) (y Int) (z Int)) (= (v1 x y z) (ite (<= x 0) z (g1 (u1 (- x 1) y z))))))
(assert (forall ((x Int)) (= (w1 x) (u1 (h1 x) i1 j1))))
(assert (forall ((x Int)) (= (small x) (- (w0 x) (w1 x)))))
(assert (forall ((x Int)) (= (f2 x) (+ x x))))
(assert (forall ((x Int)) (= (g2 x) (modf x 2))))
(assert (forall ((x Int)) (= (f3 x) (* x x))))
(assert (= g3 1))
(assert (forall ((x Int)) (= (f4 x) (+ x x))))
(assert (forall ((x Int)) (= (g4 x) (divf x 2))))
(assert (= h4 1))
(assert (forall ((x Int) (y Int)) (= (u4 x y) (ite (<= x 0) y (f4 (u4 (- x 1) y))))))
(assert (forall ((x Int)) (= (v4 x) (u4 (g4 x) h4))))
(assert (forall ((x Int)) (= (h3 x) (v4 x))))
(assert (forall ((x Int) (y Int)) (= (u3 x y) (ite (<= x 0) y (f3 (u3 (- x 1) y))))))
(assert (forall ((x Int)) (= (v3 x) (u3 g3 (h3 x)))))
(assert (forall ((x Int)) (= (h2 x) (v3 x))))
(assert (forall ((x Int) (y Int)) (= (u2 x y) (ite (<= x 0) y (f2 (u2 (- x 1) y))))))
(assert (forall ((x Int)) (= (v2 x) (u2 (g2 x) (h2 x)))))
(assert (forall ((x Int) (y Int)) (= (f5 x y) (+ x y))))
(assert (forall ((x Int)) (= (g5 x) x)))
(assert (forall ((x Int)) (= (h5 x) (- x 1))))
(assert (= i5 1))
(assert (= j5 1))
(assert (forall ((x Int) (y Int) (z Int)) (= (u5 x y z) (ite (<= x 0) y (f5 (u5 (- x 1) y z) (v5 (- x 1) y z))))))
(assert (forall ((x Int) (y Int) (z Int)) (= (v5 x y z) (ite (<= x 0) z (g5 (u5 (- x 1) y z))))))
(assert (forall ((x Int)) (= (w5 x) (u5 (h5 x) i5 j5))))
(assert (forall ((x Int)) (= (fast x) (- (+ (* (divf (v2 x) (+ 1 2)) 2) 1) (w5 x)))))
(assert (exists ((c Int)) (and (>= c 0) (not (= (small c) (fast c))))))
(check-sat)
